NAME : traveling-santa-2018-prime-paths.29725.tour
COMMENT : Length = 29725
COMMENT : Found by LKH [Keld Helsgaun] Sun Jun 12 20:00:35 2022
TYPE : TOUR
DIMENSION : 100
TOUR_SECTION
1
3
73
62
95
5
76
85
52
15
25
4
74
42
92
98
55
28
24
9
63
67
16
10
40
59
60
88
57
99
77
27
75
97
87
84
7
54
20
91
32
49
68
6
66
86
43
44
93
96
26
34
48
2
37
83
12
58
61
69
36
14
13
45
71
100
31
19
64
22
81
11
33
89
30
35
94
65
29
21
90
78
46
72
18
82
41
70
39
8
23
80
17
38
56
53
47
50
51
79
-1
EOF
